benchmarks_CP/INST_36x36/35/inst36x36_35_58.dzn
S=6;
start=[|
-1,	-1,	-1,	-1,	3,	31,	-1,	29,	-1,	9,	-1,	10,	-1,	-1,	-1,	-1,	-1,	-1,	-1,	7,	25,	-1,	26,	-1,	-1,	-1,	-1,	-1,	-1,	-1,	-1,	-1,	-1,	-1,	-1,	-1|
-1,	-1,	8,	-1,	-1,	-1,	-1,	4,	1,	32,	7,	-1,	-1,	-1,	23,	2,	12,	-1,	-1,	-1,	-1,	-1,	11,	-1,	24,	20,	-1,	-1,	-1,	-1,	-1,	-1,	35,	21,	26,	-1|
-1,	-1,	-1,	11,	35,	-1,	-1,	-1,	-1,	34,	-1,	19,	-1,	-1,	-1,	7,	-1,	25,	30,	-1,	-1,	-1,	-1,	28,	-1,	-1,	-1,	-1,	-1,	-1,	-1,	-1,	-1,	31,	-1,	9|
-1,	-1,	-1,	20,	-1,	-1,	-1,	13,	25,	-1,	-1,	-1,	-1,	-1,	34,	-1,	-1,	-1,	-1,	-1,	-1,	-1,	-1,	-1,	-1,	17,	-1,	21,	-1,	-1,	-1,	-1,	5,	28,	29,	-1|
-1,	-1,	28,	-1,	-1,	-1,	33,	-1,	-1,	-1,	-1,	8,	19,	-1,	-1,	22,	5,	-1,	-1,	-1,	-1,	4,	-1,	-1,	-1,	29,	26,	-1,	34,	3,	12,	-1,	-1,	24,	-1,	-1|
25,	16,	-1,	-1,	-1,	-1,	-1,	-1,	-1,	28,	26,	-1,	8,	-1,	-1,	31,	30,	-1,	-1,	34,	-1,	29,	6,	-1,	-1,	15,	-1,	-1,	35,	-1,	-1,	18,	-1,	36,	-1,	-1|
-1,	-1,	-1,	-1,	6,	-1,	-1,	-1,	20,	1,	-1,	35,	5,	-1,	32,	-1,	36,	-1,	33,	23,	-1,	-1,	22,	-1,	-1,	34,	-1,	-1,	15,	-1,	-1,	-1,	8,	26,	-1,	-1|
-1,	33,	32,	-1,	-1,	35,	7,	-1,	-1,	-1,	11,	5,	-1,	15,	26,	10,	9,	-1,	20,	-1,	8,	14,	-1,	-1,	31,	-1,	30,	19,	-1,	-1,	-1,	-1,	-1,	-1,	-1,	-1|
-1,	13,	-1,	-1,	17,	-1,	-1,	-1,	33,	-1,	4,	26,	-1,	-1,	-1,	-1,	-1,	30,	6,	-1,	-1,	-1,	10,	-1,	2,	32,	21,	-1,	5,	-1,	35,	-1,	31,	-1,	36,	18|
-1,	-1,	30,	-1,	27,	-1,	-1,	-1,	22,	-1,	28,	-1,	-1,	-1,	-1,	25,	-1,	-1,	-1,	-1,	-1,	-1,	5,	-1,	-1,	-1,	-1,	-1,	-1,	-1,	-1,	-1,	-1,	-1,	17,	6|
-1,	3,	-1,	-1,	-1,	-1,	-1,	-1,	9,	-1,	-1,	-1,	11,	-1,	-1,	17,	-1,	-1,	-1,	-1,	-1,	28,	19,	35,	26,	-1,	-1,	-1,	-1,	22,	-1,	5,	14,	20,	-1,	32|
-1,	-1,	18,	31,	-1,	11,	-1,	-1,	-1,	-1,	-1,	-1,	-1,	-1,	-1,	-1,	-1,	23,	21,	13,	-1,	-1,	-1,	-1,	17,	-1,	6,	-1,	-1,	-1,	-1,	-1,	28,	15,	-1,	22|
10,	27,	-1,	-1,	-1,	-1,	-1,	35,	-1,	30,	-1,	-1,	-1,	-1,	-1,	-1,	34,	1,	-1,	-1,	13,	-1,	12,	17,	20,	-1,	22,	3,	-1,	23,	-1,	-1,	25,	7,	-1,	-1|
-1,	-1,	25,	-1,	-1,	13,	-1,	-1,	-1,	-1,	-1,	-1,	-1,	-1,	-1,	-1,	-1,	-1,	-1,	36,	20,	-1,	-1,	-1,	-1,	-1,	2,	-1,	-1,	-1,	-1,	-1,	-1,	1,	10,	-1|
-1,	-1,	-1,	-1,	-1,	-1,	-1,	11,	-1,	8,	9,	-1,	-1,	17,	-1,	-1,	-1,	12,	-1,	-1,	-1,	-1,	-1,	-1,	-1,	-1,	1,	10,	-1,	32,	-1,	14,	-1,	-1,	-1,	-1|
14,	4,	19,	-1,	-1,	28,	-1,	33,	-1,	-1,	10,	-1,	9,	-1,	-1,	-1,	23,	-1,	16,	8,	-1,	-1,	-1,	31,	-1,	13,	-1,	-1,	-1,	-1,	18,	-1,	17,	-1,	-1,	36|
-1,	-1,	-1,	-1,	5,	6,	-1,	3,	16,	-1,	-1,	23,	20,	-1,	-1,	-1,	-1,	-1,	-1,	18,	33,	27,	-1,	7,	14,	-1,	-1,	-1,	-1,	28,	32,	-1,	11,	12,	-1,	21|
-1,	-1,	-1,	-1,	-1,	-1,	-1,	36,	17,	-1,	-1,	-1,	31,	-1,	-1,	16,	-1,	-1,	-1,	5,	6,	-1,	-1,	25,	35,	-1,	-1,	-1,	-1,	-1,	8,	-1,	-1,	22,	23,	-1|
16,	31,	-1,	-1,	-1,	-1,	10,	23,	32,	-1,	-1,	-1,	-1,	34,	-1,	-1,	6,	36,	-1,	-1,	-1,	-1,	-1,	-1,	-1,	9,	-1,	11,	21,	-1,	14,	29,	-1,	19,	-1,	-1|
-1,	22,	-1,	-1,	20,	17,	-1,	-1,	-1,	-1,	-1,	18,	26,	3,	30,	-1,	-1,	21,	-1,	-1,	14,	-1,	-1,	-1,	-1,	-1,	13,	8,	-1,	-1,	-1,	-1,	-1,	-1,	5,	11|
-1,	-1,	-1,	3,	-1,	-1,	-1,	8,	13,	-1,	29,	7,	-1,	-1,	-1,	-1,	-1,	-1,	-1,	-1,	34,	25,	-1,	-1,	-1,	-1,	15,	-1,	-1,	-1,	27,	-1,	-1,	-1,	16,	-1|
-1,	-1,	29,	-1,	-1,	-1,	26,	-1,	31,	-1,	-1,	-1,	-1,	35,	-1,	27,	11,	-1,	-1,	-1,	10,	-1,	-1,	-1,	36,	-1,	32,	-1,	-1,	-1,	-1,	-1,	-1,	-1,	-1,	-1|
-1,	-1,	-1,	-1,	18,	21,	-1,	-1,	-1,	-1,	-1,	-1,	-1,	-1,	1,	19,	28,	-1,	-1,	32,	3,	-1,	-1,	-1,	-1,	-1,	-1,	-1,	6,	27,	2,	17,	-1,	-1,	-1,	-1|
33,	-1,	-1,	-1,	-1,	-1,	-1,	-1,	-1,	-1,	-1,	27,	-1,	14,	12,	20,	-1,	29,	-1,	30,	-1,	-1,	-1,	-1,	-1,	26,	-1,	31,	-1,	18,	6,	-1,	-1,	-1,	-1,	-1|
-1,	-1,	17,	-1,	24,	1,	14,	18,	7,	36,	32,	6,	33,	25,	-1,	-1,	19,	-1,	34,	-1,	5,	30,	21,	-1,	-1,	11,	-1,	-1,	-1,	-1,	-1,	-1,	20,	-1,	8,	-1|
36,	-1,	33,	-1,	-1,	15,	11,	-1,	29,	27,	8,	31,	-1,	5,	28,	-1,	-1,	32,	-1,	35,	19,	-1,	-1,	-1,	-1,	-1,	-1,	6,	-1,	-1,	10,	12,	22,	17,	9,	24|
-1,	-1,	-1,	-1,	-1,	26,	2,	10,	-1,	4,	-1,	-1,	-1,	-1,	11,	-1,	-1,	-1,	1,	-1,	32,	6,	-1,	-1,	-1,	-1,	-1,	14,	-1,	-1,	-1,	27,	18,	-1,	-1,	-1|
-1,	25,	-1,	-1,	-1,	-1,	-1,	22,	-1,	-1,	-1,	34,	-1,	-1,	-1,	-1,	-1,	16,	17,	-1,	-1,	-1,	20,	8,	-1,	33,	-1,	32,	9,	-1,	-1,	-1,	-1,	-1,	-1,	-1|
20,	-1,	3,	-1,	-1,	-1,	9,	-1,	23,	33,	-1,	-1,	-1,	30,	36,	6,	22,	-1,	13,	-1,	-1,	31,	28,	26,	-1,	2,	-1,	18,	-1,	-1,	-1,	21,	-1,	-1,	-1,	-1|
32,	-1,	-1,	16,	-1,	9,	-1,	26,	-1,	-1,	30,	-1,	-1,	-1,	-1,	-1,	-1,	-1,	-1,	-1,	29,	-1,	36,	-1,	-1,	27,	-1,	22,	-1,	-1,	-1,	-1,	-1,	-1,	28,	14|
35,	-1,	-1,	-1,	-1,	-1,	4,	-1,	-1,	-1,	-1,	9,	10,	-1,	-1,	-1,	-1,	-1,	-1,	19,	-1,	22,	27,	-1,	-1,	-1,	-1,	15,	-1,	-1,	-1,	-1,	24,	14,	-1,	-1|
15,	-1,	-1,	5,	-1,	-1,	-1,	-1,	-1,	-1,	-1,	-1,	6,	26,	-1,	9,	25,	-1,	14,	-1,	-1,	33,	-1,	24,	32,	-1,	7,	35,	-1,	-1,	28,	-1,	-1,	-1,	-1,	-1|
-1,	-1,	13,	-1,	10,	14,	-1,	-1,	-1,	-1,	-1,	15,	3,	-1,	-1,	-1,	20,	-1,	5,	-1,	26,	-1,	-1,	9,	-1,	-1,	-1,	17,	24,	31,	-1,	-1,	-1,	-1,	11,	-1|
-1,	-1,	-1,	33,	-1,	-1,	5,	-1,	-1,	-1,	-1,	-1,	-1,	-1,	-1,	-1,	-1,	24,	12,	10,	-1,	-1,	-1,	-1,	-1,	-1,	36,	-1,	-1,	-1,	-1,	26,	15,	-1,	1,	35|
-1,	-1,	-1,	24,	-1,	34,	19,	-1,	8,	21,	-1,	-1,	-1,	-1,	33,	32,	-1,	27,	31,	-1,	-1,	3,	1,	4,	28,	5,	-1,	-1,	10,	-1,	20,	2,	-1,	9,	-1,	-1|
17,	-1,	-1,	-1,	-1,	-1,	-1,	-1,	10,	-1,	1,	24,	-1,	12,	22,	-1,	13,	5,	18,	20,	11,	-1,	-1,	-1,	-1,	-1,	-1,	-1,	2,	-1,	4,	-1,	-1,	8,	-1,	27|];
